
  12    4
  10   10   10   10

   0   0   0   0   0   5 2 4 5 6 7 
   7  10  10  10  10   2 10 3 
   7  10  10  10  10   2 9 8 
   4  10  10  10  10   2 11 10 
   5  10  10  10  10   2 9 8 
   3  10  10  10  10   2 9 8 
  10  10  10  10  10   1 8 
   9  10  10  10  10   1 12
   2  10  10  10  10   1 12
   9  10  10  10  10   1 12
   6  10  10  10  10   1 12
   0   0   0   0   0   0 
